p cnf 417 1670
 -1 -2 26 0
 1 -26 0
 2 -26 0
 -1 -3 27 0
 1 -27 0
 3 -27 0
 -1 -4 28 0
 1 -28 0
 4 -28 0
 -1 -5 29 0
 1 -29 0
 5 -29 0
 -1 -6 30 0
 1 -30 0
 6 -30 0
 -1 -7 31 0
 1 -31 0
 7 -31 0
 -1 -8 32 0
 1 -32 0
 8 -32 0
 -1 -9 33 0
 1 -33 0
 9 -33 0
 -1 -10 34 0
 1 -34 0
 10 -34 0
 -1 -11 35 0
 1 -35 0
 11 -35 0
 -1 -12 36 0
 1 -36 0
 12 -36 0
 -1 -13 37 0
 1 -37 0
 13 -37 0
 -1 -14 38 0
 1 -38 0
 14 -38 0
 -1 -15 39 0
 1 -39 0
 15 -39 0
 -1 -16 40 0
 1 -40 0
 16 -40 0
 -1 -17 41 0
 1 -41 0
 17 -41 0
 -1 -18 42 0
 1 -42 0
 18 -42 0
 -1 -19 43 0
 1 -43 0
 19 -43 0
 -1 -20 44 0
 1 -44 0
 20 -44 0
 -1 -21 45 0
 1 -45 0
 21 -45 0
 -1 -22 46 0
 1 -46 0
 22 -46 0
 -1 -23 47 0
 1 -47 0
 23 -47 0
 -1 -24 48 0
 1 -48 0
 24 -48 0
 -1 -25 49 0
 1 -49 0
 25 -49 0
 -2 -3 50 0
 2 -50 0
 3 -50 0
 -2 -4 51 0
 2 -51 0
 4 -51 0
 -2 -5 52 0
 2 -52 0
 5 -52 0
 -2 -6 53 0
 2 -53 0
 6 -53 0
 -2 -7 54 0
 2 -54 0
 7 -54 0
 -2 -8 55 0
 2 -55 0
 8 -55 0
 -2 -9 56 0
 2 -56 0
 9 -56 0
 -2 -10 57 0
 2 -57 0
 10 -57 0
 -2 -11 58 0
 2 -58 0
 11 -58 0
 -2 -12 59 0
 2 -59 0
 12 -59 0
 -2 -13 60 0
 2 -60 0
 13 -60 0
 -2 -14 61 0
 2 -61 0
 14 -61 0
 -2 -15 62 0
 2 -62 0
 15 -62 0
 -2 -16 63 0
 2 -63 0
 16 -63 0
 -2 -17 64 0
 2 -64 0
 17 -64 0
 -2 -18 65 0
 2 -65 0
 18 -65 0
 -2 -19 66 0
 2 -66 0
 19 -66 0
 -2 -20 67 0
 2 -67 0
 20 -67 0
 -2 -21 68 0
 2 -68 0
 21 -68 0
 -2 -22 69 0
 2 -69 0
 22 -69 0
 -2 -23 70 0
 2 -70 0
 23 -70 0
 -2 -24 71 0
 2 -71 0
 24 -71 0
 -2 -25 72 0
 2 -72 0
 25 -72 0
 -3 -4 73 0
 3 -73 0
 4 -73 0
 -3 -5 74 0
 3 -74 0
 5 -74 0
 -3 -6 75 0
 3 -75 0
 6 -75 0
 -3 -7 76 0
 3 -76 0
 7 -76 0
 -3 -8 77 0
 3 -77 0
 8 -77 0
 -3 -9 78 0
 3 -78 0
 9 -78 0
 -3 -10 79 0
 3 -79 0
 10 -79 0
 -3 -11 80 0
 3 -80 0
 11 -80 0
 -3 -12 81 0
 3 -81 0
 12 -81 0
 -3 -13 82 0
 3 -82 0
 13 -82 0
 -3 -14 83 0
 3 -83 0
 14 -83 0
 -3 -15 84 0
 3 -84 0
 15 -84 0
 -3 -16 85 0
 3 -85 0
 16 -85 0
 -3 -17 86 0
 3 -86 0
 17 -86 0
 -3 -18 87 0
 3 -87 0
 18 -87 0
 -3 -19 88 0
 3 -88 0
 19 -88 0
 -3 -20 89 0
 3 -89 0
 20 -89 0
 -3 -21 90 0
 3 -90 0
 21 -90 0
 -3 -22 91 0
 3 -91 0
 22 -91 0
 -3 -23 92 0
 3 -92 0
 23 -92 0
 -3 -24 93 0
 3 -93 0
 24 -93 0
 -3 -25 94 0
 3 -94 0
 25 -94 0
 -4 -5 95 0
 4 -95 0
 5 -95 0
 -4 -6 96 0
 4 -96 0
 6 -96 0
 -4 -7 97 0
 4 -97 0
 7 -97 0
 -4 -8 98 0
 4 -98 0
 8 -98 0
 -4 -9 99 0
 4 -99 0
 9 -99 0
 -4 -10 100 0
 4 -100 0
 10 -100 0
 -4 -11 101 0
 4 -101 0
 11 -101 0
 -4 -12 102 0
 4 -102 0
 12 -102 0
 -4 -13 103 0
 4 -103 0
 13 -103 0
 -4 -14 104 0
 4 -104 0
 14 -104 0
 -4 -15 105 0
 4 -105 0
 15 -105 0
 -4 -16 106 0
 4 -106 0
 16 -106 0
 -4 -17 107 0
 4 -107 0
 17 -107 0
 -4 -18 108 0
 4 -108 0
 18 -108 0
 -4 -19 109 0
 4 -109 0
 19 -109 0
 -4 -20 110 0
 4 -110 0
 20 -110 0
 -4 -21 111 0
 4 -111 0
 21 -111 0
 -4 -22 112 0
 4 -112 0
 22 -112 0
 -4 -23 113 0
 4 -113 0
 23 -113 0
 -4 -24 114 0
 4 -114 0
 24 -114 0
 -4 -25 115 0
 4 -115 0
 25 -115 0
 -5 -6 116 0
 5 -116 0
 6 -116 0
 -5 -7 117 0
 5 -117 0
 7 -117 0
 -5 -8 118 0
 5 -118 0
 8 -118 0
 -5 -9 119 0
 5 -119 0
 9 -119 0
 -5 -10 120 0
 5 -120 0
 10 -120 0
 -5 -11 121 0
 5 -121 0
 11 -121 0
 -5 -12 122 0
 5 -122 0
 12 -122 0
 -5 -13 123 0
 5 -123 0
 13 -123 0
 -5 -14 124 0
 5 -124 0
 14 -124 0
 -5 -15 125 0
 5 -125 0
 15 -125 0
 -5 -16 126 0
 5 -126 0
 16 -126 0
 -5 -17 127 0
 5 -127 0
 17 -127 0
 -5 -18 128 0
 5 -128 0
 18 -128 0
 -5 -19 129 0
 5 -129 0
 19 -129 0
 -5 -20 130 0
 5 -130 0
 20 -130 0
 -5 -21 131 0
 5 -131 0
 21 -131 0
 -5 -22 132 0
 5 -132 0
 22 -132 0
 -5 -23 133 0
 5 -133 0
 23 -133 0
 -5 -24 134 0
 5 -134 0
 24 -134 0
 -5 -25 135 0
 5 -135 0
 25 -135 0
 -6 -7 136 0
 6 -136 0
 7 -136 0
 -6 -8 137 0
 6 -137 0
 8 -137 0
 -6 -9 138 0
 6 -138 0
 9 -138 0
 -6 -10 139 0
 6 -139 0
 10 -139 0
 -6 -11 140 0
 6 -140 0
 11 -140 0
 -6 -12 141 0
 6 -141 0
 12 -141 0
 -6 -13 142 0
 6 -142 0
 13 -142 0
 -6 -14 143 0
 6 -143 0
 14 -143 0
 -6 -15 144 0
 6 -144 0
 15 -144 0
 -6 -16 145 0
 6 -145 0
 16 -145 0
 -6 -17 146 0
 6 -146 0
 17 -146 0
 -6 -18 147 0
 6 -147 0
 18 -147 0
 -6 -19 148 0
 6 -148 0
 19 -148 0
 -6 -20 149 0
 6 -149 0
 20 -149 0
 -6 -21 150 0
 6 -150 0
 21 -150 0
 -6 -22 151 0
 6 -151 0
 22 -151 0
 -6 -23 152 0
 6 -152 0
 23 -152 0
 -6 -24 153 0
 6 -153 0
 24 -153 0
 -6 -25 154 0
 6 -154 0
 25 -154 0
 -7 -8 155 0
 7 -155 0
 8 -155 0
 -7 -9 156 0
 7 -156 0
 9 -156 0
 -7 -10 157 0
 7 -157 0
 10 -157 0
 -7 -11 158 0
 7 -158 0
 11 -158 0
 -7 -12 159 0
 7 -159 0
 12 -159 0
 -7 -13 160 0
 7 -160 0
 13 -160 0
 -7 -14 161 0
 7 -161 0
 14 -161 0
 -7 -15 162 0
 7 -162 0
 15 -162 0
 -7 -16 163 0
 7 -163 0
 16 -163 0
 -7 -17 164 0
 7 -164 0
 17 -164 0
 -7 -18 165 0
 7 -165 0
 18 -165 0
 -7 -19 166 0
 7 -166 0
 19 -166 0
 -7 -20 167 0
 7 -167 0
 20 -167 0
 -7 -21 168 0
 7 -168 0
 21 -168 0
 -7 -22 169 0
 7 -169 0
 22 -169 0
 -7 -23 170 0
 7 -170 0
 23 -170 0
 -7 -24 171 0
 7 -171 0
 24 -171 0
 -7 -25 172 0
 7 -172 0
 25 -172 0
 -8 -9 173 0
 8 -173 0
 9 -173 0
 -8 -10 174 0
 8 -174 0
 10 -174 0
 -8 -11 175 0
 8 -175 0
 11 -175 0
 -8 -12 176 0
 8 -176 0
 12 -176 0
 -8 -13 177 0
 8 -177 0
 13 -177 0
 -8 -14 178 0
 8 -178 0
 14 -178 0
 -8 -15 179 0
 8 -179 0
 15 -179 0
 -8 -16 180 0
 8 -180 0
 16 -180 0
 -8 -17 181 0
 8 -181 0
 17 -181 0
 -8 -18 182 0
 8 -182 0
 18 -182 0
 -8 -19 183 0
 8 -183 0
 19 -183 0
 -8 -20 184 0
 8 -184 0
 20 -184 0
 -8 -21 185 0
 8 -185 0
 21 -185 0
 -8 -22 186 0
 8 -186 0
 22 -186 0
 -8 -23 187 0
 8 -187 0
 23 -187 0
 -8 -24 188 0
 8 -188 0
 24 -188 0
 -8 -25 189 0
 8 -189 0
 25 -189 0
 -9 -10 190 0
 9 -190 0
 10 -190 0
 -9 -11 191 0
 9 -191 0
 11 -191 0
 -9 -12 192 0
 9 -192 0
 12 -192 0
 -9 -13 193 0
 9 -193 0
 13 -193 0
 -9 -14 194 0
 9 -194 0
 14 -194 0
 -9 -15 195 0
 9 -195 0
 15 -195 0
 -9 -16 196 0
 9 -196 0
 16 -196 0
 -9 -17 197 0
 9 -197 0
 17 -197 0
 -9 -18 198 0
 9 -198 0
 18 -198 0
 -9 -19 199 0
 9 -199 0
 19 -199 0
 -9 -20 200 0
 9 -200 0
 20 -200 0
 -9 -21 201 0
 9 -201 0
 21 -201 0
 -9 -22 202 0
 9 -202 0
 22 -202 0
 -9 -23 203 0
 9 -203 0
 23 -203 0
 -9 -24 204 0
 9 -204 0
 24 -204 0
 -9 -25 205 0
 9 -205 0
 25 -205 0
 -10 -11 206 0
 10 -206 0
 11 -206 0
 -10 -12 207 0
 10 -207 0
 12 -207 0
 -10 -13 208 0
 10 -208 0
 13 -208 0
 -10 -14 209 0
 10 -209 0
 14 -209 0
 -10 -15 210 0
 10 -210 0
 15 -210 0
 -10 -16 211 0
 10 -211 0
 16 -211 0
 -10 -17 212 0
 10 -212 0
 17 -212 0
 -10 -18 213 0
 10 -213 0
 18 -213 0
 -10 -19 214 0
 10 -214 0
 19 -214 0
 -10 -20 215 0
 10 -215 0
 20 -215 0
 -10 -21 216 0
 10 -216 0
 21 -216 0
 -10 -22 217 0
 10 -217 0
 22 -217 0
 -10 -23 218 0
 10 -218 0
 23 -218 0
 -10 -24 219 0
 10 -219 0
 24 -219 0
 -10 -25 220 0
 10 -220 0
 25 -220 0
 -11 -12 221 0
 11 -221 0
 12 -221 0
 -11 -13 222 0
 11 -222 0
 13 -222 0
 -11 -14 223 0
 11 -223 0
 14 -223 0
 -11 -15 224 0
 11 -224 0
 15 -224 0
 -11 -16 225 0
 11 -225 0
 16 -225 0
 -11 -17 226 0
 11 -226 0
 17 -226 0
 -11 -18 227 0
 11 -227 0
 18 -227 0
 -11 -19 228 0
 11 -228 0
 19 -228 0
 -11 -20 229 0
 11 -229 0
 20 -229 0
 -11 -21 230 0
 11 -230 0
 21 -230 0
 -11 -22 231 0
 11 -231 0
 22 -231 0
 -11 -23 232 0
 11 -232 0
 23 -232 0
 -11 -24 233 0
 11 -233 0
 24 -233 0
 -11 -25 234 0
 11 -234 0
 25 -234 0
 -12 -13 235 0
 12 -235 0
 13 -235 0
 -12 -14 236 0
 12 -236 0
 14 -236 0
 -12 -15 237 0
 12 -237 0
 15 -237 0
 -12 -16 238 0
 12 -238 0
 16 -238 0
 -12 -17 239 0
 12 -239 0
 17 -239 0
 -12 -18 240 0
 12 -240 0
 18 -240 0
 -12 -19 241 0
 12 -241 0
 19 -241 0
 -12 -20 242 0
 12 -242 0
 20 -242 0
 -12 -21 243 0
 12 -243 0
 21 -243 0
 -12 -22 244 0
 12 -244 0
 22 -244 0
 -12 -23 245 0
 12 -245 0
 23 -245 0
 -12 -24 246 0
 12 -246 0
 24 -246 0
 -12 -25 247 0
 12 -247 0
 25 -247 0
 -13 -14 248 0
 13 -248 0
 14 -248 0
 -13 -15 249 0
 13 -249 0
 15 -249 0
 -13 -16 250 0
 13 -250 0
 16 -250 0
 -13 -17 251 0
 13 -251 0
 17 -251 0
 -13 -18 252 0
 13 -252 0
 18 -252 0
 -13 -19 253 0
 13 -253 0
 19 -253 0
 -13 -20 254 0
 13 -254 0
 20 -254 0
 -13 -21 255 0
 13 -255 0
 21 -255 0
 -13 -22 256 0
 13 -256 0
 22 -256 0
 -13 -23 257 0
 13 -257 0
 23 -257 0
 -13 -24 258 0
 13 -258 0
 24 -258 0
 -13 -25 259 0
 13 -259 0
 25 -259 0
 -14 -15 260 0
 14 -260 0
 15 -260 0
 -14 -16 261 0
 14 -261 0
 16 -261 0
 -14 -17 262 0
 14 -262 0
 17 -262 0
 -14 -18 263 0
 14 -263 0
 18 -263 0
 -14 -19 264 0
 14 -264 0
 19 -264 0
 -14 -20 265 0
 14 -265 0
 20 -265 0
 -14 -21 266 0
 14 -266 0
 21 -266 0
 -14 -22 267 0
 14 -267 0
 22 -267 0
 -14 -23 268 0
 14 -268 0
 23 -268 0
 -14 -24 269 0
 14 -269 0
 24 -269 0
 -14 -25 270 0
 14 -270 0
 25 -270 0
 -15 -16 271 0
 15 -271 0
 16 -271 0
 -15 -17 272 0
 15 -272 0
 17 -272 0
 -15 -18 273 0
 15 -273 0
 18 -273 0
 -15 -19 274 0
 15 -274 0
 19 -274 0
 -15 -20 275 0
 15 -275 0
 20 -275 0
 -15 -21 276 0
 15 -276 0
 21 -276 0
 -15 -22 277 0
 15 -277 0
 22 -277 0
 -15 -23 278 0
 15 -278 0
 23 -278 0
 -15 -24 279 0
 15 -279 0
 24 -279 0
 -15 -25 280 0
 15 -280 0
 25 -280 0
 -16 -17 281 0
 16 -281 0
 17 -281 0
 -16 -18 282 0
 16 -282 0
 18 -282 0
 -16 -19 283 0
 16 -283 0
 19 -283 0
 -16 -20 284 0
 16 -284 0
 20 -284 0
 -16 -21 285 0
 16 -285 0
 21 -285 0
 -16 -22 286 0
 16 -286 0
 22 -286 0
 -16 -23 287 0
 16 -287 0
 23 -287 0
 -16 -24 288 0
 16 -288 0
 24 -288 0
 -16 -25 289 0
 16 -289 0
 25 -289 0
 -17 -18 290 0
 17 -290 0
 18 -290 0
 -17 -19 291 0
 17 -291 0
 19 -291 0
 -17 -20 292 0
 17 -292 0
 20 -292 0
 -17 -21 293 0
 17 -293 0
 21 -293 0
 -17 -22 294 0
 17 -294 0
 22 -294 0
 -17 -23 295 0
 17 -295 0
 23 -295 0
 -17 -24 296 0
 17 -296 0
 24 -296 0
 -17 -25 297 0
 17 -297 0
 25 -297 0
 -18 -19 298 0
 18 -298 0
 19 -298 0
 -18 -20 299 0
 18 -299 0
 20 -299 0
 -18 -21 300 0
 18 -300 0
 21 -300 0
 -18 -22 301 0
 18 -301 0
 22 -301 0
 -18 -23 302 0
 18 -302 0
 23 -302 0
 -18 -24 303 0
 18 -303 0
 24 -303 0
 -18 -25 304 0
 18 -304 0
 25 -304 0
 -19 -20 305 0
 19 -305 0
 20 -305 0
 -19 -21 306 0
 19 -306 0
 21 -306 0
 -19 -22 307 0
 19 -307 0
 22 -307 0
 -19 -23 308 0
 19 -308 0
 23 -308 0
 -19 -24 309 0
 19 -309 0
 24 -309 0
 -19 -25 310 0
 19 -310 0
 25 -310 0
 -20 -21 311 0
 20 -311 0
 21 -311 0
 -20 -22 312 0
 20 -312 0
 22 -312 0
 -20 -23 313 0
 20 -313 0
 23 -313 0
 -20 -24 314 0
 20 -314 0
 24 -314 0
 -20 -25 315 0
 20 -315 0
 25 -315 0
 -21 -22 316 0
 21 -316 0
 22 -316 0
 -21 -23 317 0
 21 -317 0
 23 -317 0
 -21 -24 318 0
 21 -318 0
 24 -318 0
 -21 -25 319 0
 21 -319 0
 25 -319 0
 -22 -23 320 0
 22 -320 0
 23 -320 0
 -22 -24 321 0
 22 -321 0
 24 -321 0
 -22 -25 322 0
 22 -322 0
 25 -322 0
 -23 -24 323 0
 23 -323 0
 24 -323 0
 -23 -25 324 0
 23 -324 0
 25 -324 0
 -24 -25 325 0
 24 -325 0
 25 -325 0
 1 2 3 4 5 0
 -1 -2 0
 -1 -3 0
 -2 -3 0
 -1 326 0
 -2 326 0
 -3 326 0
 -326 -4 0
 -326 -5 0
 -4 -5 0
 6 7 8 9 10 0
 -6 -7 0
 -6 -8 0
 -7 -8 0
 -6 327 0
 -7 327 0
 -8 327 0
 -327 -9 0
 -327 -10 0
 -9 -10 0
 11 12 13 14 15 0
 -11 -12 0
 -11 -13 0
 -12 -13 0
 -11 328 0
 -12 328 0
 -13 328 0
 -328 -14 0
 -328 -15 0
 -14 -15 0
 16 17 18 19 20 0
 -16 -17 0
 -16 -18 0
 -17 -18 0
 -16 329 0
 -17 329 0
 -18 329 0
 -329 -19 0
 -329 -20 0
 -19 -20 0
 21 22 23 24 25 0
 -21 -22 0
 -21 -23 0
 -22 -23 0
 -21 330 0
 -22 330 0
 -23 330 0
 -330 -24 0
 -330 -25 0
 -24 -25 0
 1 6 11 16 21 0
 -1 -6 0
 -1 -11 0
 -6 -11 0
 -1 331 0
 -6 331 0
 -11 331 0
 -331 -16 0
 -331 -21 0
 -16 -21 0
 2 7 12 17 22 0
 -2 -7 0
 -2 -12 0
 -7 -12 0
 -2 332 0
 -7 332 0
 -12 332 0
 -332 -17 0
 -332 -22 0
 -17 -22 0
 3 8 13 18 23 0
 -3 -8 0
 -3 -13 0
 -8 -13 0
 -3 333 0
 -8 333 0
 -13 333 0
 -333 -18 0
 -333 -23 0
 -18 -23 0
 4 9 14 19 24 0
 -4 -9 0
 -4 -14 0
 -9 -14 0
 -4 334 0
 -9 334 0
 -14 334 0
 -334 -19 0
 -334 -24 0
 -19 -24 0
 5 10 15 20 25 0
 -5 -10 0
 -5 -15 0
 -10 -15 0
 -5 335 0
 -10 335 0
 -15 335 0
 -335 -20 0
 -335 -25 0
 -20 -25 0
 -26 -50 0
 -26 -73 0
 -50 -73 0
 -26 336 0
 -50 336 0
 -73 336 0
 -336 -95 0
 -336 -136 0
 -95 -136 0
 -336 337 0
 -95 337 0
 -136 337 0
 -337 -155 0
 -337 -173 0
 -155 -173 0
 -337 338 0
 -155 338 0
 -173 338 0
 -338 -190 0
 -338 -221 0
 -190 -221 0
 -338 339 0
 -190 339 0
 -221 339 0
 -339 -235 0
 -339 -248 0
 -235 -248 0
 -339 340 0
 -235 340 0
 -248 340 0
 -340 -260 0
 -340 -281 0
 -260 -281 0
 -340 341 0
 -260 341 0
 -281 341 0
 -341 -290 0
 -341 -298 0
 -290 -298 0
 -341 342 0
 -290 342 0
 -298 342 0
 -342 -305 0
 -342 -316 0
 -305 -316 0
 -342 343 0
 -305 343 0
 -316 343 0
 -343 -320 0
 -343 -323 0
 -320 -323 0
 -343 -325 0
 -320 -325 0
 -323 -325 0
 -27 -51 0
 -27 -74 0
 -51 -74 0
 -27 344 0
 -51 344 0
 -74 344 0
 -344 -137 0
 -344 -156 0
 -137 -156 0
 -344 345 0
 -137 345 0
 -156 345 0
 -345 -174 0
 -345 -222 0
 -174 -222 0
 -345 346 0
 -174 346 0
 -222 346 0
 -346 -236 0
 -346 -249 0
 -236 -249 0
 -346 347 0
 -236 347 0
 -249 347 0
 -347 -282 0
 -347 -291 0
 -282 -291 0
 -347 348 0
 -282 348 0
 -291 348 0
 -348 -299 0
 -348 -317 0
 -299 -317 0
 -348 349 0
 -299 349 0
 -317 349 0
 -349 -321 0
 -349 -324 0
 -321 -324 0
 -28 -52 0
 -28 -138 0
 -52 -138 0
 -28 350 0
 -52 350 0
 -138 350 0
 -350 -157 0
 -350 -223 0
 -157 -223 0
 -350 351 0
 -157 351 0
 -223 351 0
 -351 -237 0
 -351 -283 0
 -237 -283 0
 -351 352 0
 -237 352 0
 -283 352 0
 -352 -292 0
 -352 -318 0
 -292 -318 0
 -352 -322 0
 -292 -322 0
 -318 -322 0
 -29 -139 0
 -29 -224 0
 -139 -224 0
 -29 353 0
 -139 353 0
 -224 353 0
 -353 -284 0
 -353 -319 0
 -284 -319 0
 -116 -206 0
 -116 -271 0
 -206 -271 0
 -116 -311 0
 -206 -311 0
 -271 -311 0
 -96 -117 0
 -96 -191 0
 -117 -191 0
 -96 354 0
 -117 354 0
 -191 354 0
 -354 -207 0
 -354 -261 0
 -207 -261 0
 -354 355 0
 -207 355 0
 -261 355 0
 -355 -272 0
 -355 -306 0
 -272 -306 0
 -355 -312 0
 -272 -312 0
 -306 -312 0
 -75 -97 0
 -75 -118 0
 -97 -118 0
 -75 356 0
 -97 356 0
 -118 356 0
 -356 -175 0
 -356 -192 0
 -175 -192 0
 -356 357 0
 -175 357 0
 -192 357 0
 -357 -208 0
 -357 -250 0
 -208 -250 0
 -357 358 0
 -208 358 0
 -250 358 0
 -358 -262 0
 -358 -273 0
 -262 -273 0
 -358 359 0
 -262 359 0
 -273 359 0
 -359 -300 0
 -359 -307 0
 -300 -307 0
 -359 -313 0
 -300 -313 0
 -307 -313 0
 -53 -76 0
 -53 -98 0
 -76 -98 0
 -53 360 0
 -76 360 0
 -98 360 0
 -360 -119 0
 -360 -158 0
 -119 -158 0
 -360 361 0
 -119 361 0
 -158 361 0
 -361 -176 0
 -361 -193 0
 -176 -193 0
 -361 362 0
 -176 362 0
 -193 362 0
 -362 -209 0
 -362 -238 0
 -209 -238 0
 -362 363 0
 -209 363 0
 -238 363 0
 -363 -251 0
 -363 -263 0
 -251 -263 0
 -363 364 0
 -251 364 0
 -263 364 0
 -364 -274 0
 -364 -293 0
 -274 -293 0
 -364 365 0
 -274 365 0
 -293 365 0
 -365 -301 0
 -365 -308 0
 -301 -308 0
 -365 -314 0
 -301 -314 0
 -308 -314 0
 -30 -54 0
 -30 -77 0
 -54 -77 0
 -30 366 0
 -54 366 0
 -77 366 0
 -366 -99 0
 -366 -120 0
 -99 -120 0
 -366 367 0
 -99 367 0
 -120 367 0
 -367 -140 0
 -367 -159 0
 -140 -159 0
 -367 368 0
 -140 368 0
 -159 368 0
 -368 -177 0
 -368 -194 0
 -177 -194 0
 -368 369 0
 -177 369 0
 -194 369 0
 -369 -210 0
 -369 -225 0
 -210 -225 0
 -369 370 0
 -210 370 0
 -225 370 0
 -370 -239 0
 -370 -252 0
 -239 -252 0
 -370 371 0
 -239 371 0
 -252 371 0
 -371 -264 0
 -371 -275 0
 -264 -275 0
 -371 372 0
 -264 372 0
 -275 372 0
 -372 -285 0
 -372 -294 0
 -285 -294 0
 -372 373 0
 -285 373 0
 -294 373 0
 -373 -302 0
 -373 -309 0
 -302 -309 0
 -373 -315 0
 -302 -315 0
 -309 -315 0
 -31 -55 0
 -31 -78 0
 -55 -78 0
 -31 374 0
 -55 374 0
 -78 374 0
 -374 -100 0
 -374 -141 0
 -100 -141 0
 -374 375 0
 -100 375 0
 -141 375 0
 -375 -160 0
 -375 -178 0
 -160 -178 0
 -375 376 0
 -160 376 0
 -178 376 0
 -376 -195 0
 -376 -226 0
 -195 -226 0
 -376 377 0
 -195 377 0
 -226 377 0
 -377 -240 0
 -377 -253 0
 -240 -253 0
 -377 378 0
 -240 378 0
 -253 378 0
 -378 -265 0
 -378 -286 0
 -265 -286 0
 -378 379 0
 -265 379 0
 -286 379 0
 -379 -295 0
 -379 -303 0
 -295 -303 0
 -379 -310 0
 -295 -310 0
 -303 -310 0
 -32 -56 0
 -32 -79 0
 -56 -79 0
 -32 380 0
 -56 380 0
 -79 380 0
 -380 -142 0
 -380 -161 0
 -142 -161 0
 -380 381 0
 -142 381 0
 -161 381 0
 -381 -179 0
 -381 -227 0
 -179 -227 0
 -381 382 0
 -179 382 0
 -227 382 0
 -382 -241 0
 -382 -254 0
 -241 -254 0
 -382 383 0
 -241 383 0
 -254 383 0
 -383 -287 0
 -383 -296 0
 -287 -296 0
 -383 -304 0
 -287 -304 0
 -296 -304 0
 -33 -57 0
 -33 -143 0
 -57 -143 0
 -33 384 0
 -57 384 0
 -143 384 0
 -384 -162 0
 -384 -228 0
 -162 -228 0
 -384 385 0
 -162 385 0
 -228 385 0
 -385 -242 0
 -385 -288 0
 -242 -288 0
 -385 -297 0
 -242 -297 0
 -288 -297 0
 -34 -144 0
 -34 -229 0
 -144 -229 0
 -34 -289 0
 -144 -289 0
 -229 -289 0
 -121 -211 0
 -121 -276 0
 -211 -276 0
 -101 -122 0
 -101 -196 0
 -122 -196 0
 -101 386 0
 -122 386 0
 -196 386 0
 -386 -212 0
 -386 -266 0
 -212 -266 0
 -386 -277 0
 -212 -277 0
 -266 -277 0
 -80 -102 0
 -80 -123 0
 -102 -123 0
 -80 387 0
 -102 387 0
 -123 387 0
 -387 -180 0
 -387 -197 0
 -180 -197 0
 -387 388 0
 -180 388 0
 -197 388 0
 -388 -213 0
 -388 -255 0
 -213 -255 0
 -388 389 0
 -213 389 0
 -255 389 0
 -389 -267 0
 -389 -278 0
 -267 -278 0
 -58 -81 0
 -58 -103 0
 -81 -103 0
 -58 390 0
 -81 390 0
 -103 390 0
 -390 -124 0
 -390 -163 0
 -124 -163 0
 -390 391 0
 -124 391 0
 -163 391 0
 -391 -181 0
 -391 -198 0
 -181 -198 0
 -391 392 0
 -181 392 0
 -198 392 0
 -392 -214 0
 -392 -243 0
 -214 -243 0
 -392 393 0
 -214 393 0
 -243 393 0
 -393 -256 0
 -393 -268 0
 -256 -268 0
 -393 -279 0
 -256 -279 0
 -268 -279 0
 -35 -59 0
 -35 -82 0
 -59 -82 0
 -35 394 0
 -59 394 0
 -82 394 0
 -394 -104 0
 -394 -125 0
 -104 -125 0
 -394 395 0
 -104 395 0
 -125 395 0
 -395 -145 0
 -395 -164 0
 -145 -164 0
 -395 396 0
 -145 396 0
 -164 396 0
 -396 -182 0
 -396 -199 0
 -182 -199 0
 -396 397 0
 -182 397 0
 -199 397 0
 -397 -215 0
 -397 -230 0
 -215 -230 0
 -397 398 0
 -215 398 0
 -230 398 0
 -398 -244 0
 -398 -257 0
 -244 -257 0
 -398 399 0
 -244 399 0
 -257 399 0
 -399 -269 0
 -399 -280 0
 -269 -280 0
 -36 -60 0
 -36 -83 0
 -60 -83 0
 -36 400 0
 -60 400 0
 -83 400 0
 -400 -105 0
 -400 -146 0
 -105 -146 0
 -400 401 0
 -105 401 0
 -146 401 0
 -401 -165 0
 -401 -183 0
 -165 -183 0
 -401 402 0
 -165 402 0
 -183 402 0
 -402 -200 0
 -402 -231 0
 -200 -231 0
 -402 403 0
 -200 403 0
 -231 403 0
 -403 -245 0
 -403 -258 0
 -245 -258 0
 -403 -270 0
 -245 -270 0
 -258 -270 0
 -37 -61 0
 -37 -84 0
 -61 -84 0
 -37 404 0
 -61 404 0
 -84 404 0
 -404 -147 0
 -404 -166 0
 -147 -166 0
 -404 405 0
 -147 405 0
 -166 405 0
 -405 -184 0
 -405 -232 0
 -184 -232 0
 -405 406 0
 -184 406 0
 -232 406 0
 -406 -246 0
 -406 -259 0
 -246 -259 0
 -38 -62 0
 -38 -148 0
 -62 -148 0
 -38 407 0
 -62 407 0
 -148 407 0
 -407 -167 0
 -407 -233 0
 -167 -233 0
 -407 -247 0
 -167 -247 0
 -233 -247 0
 -39 -149 0
 -39 -234 0
 -149 -234 0
 -126 -216 0
 -106 -127 0
 -106 -201 0
 -127 -201 0
 -106 -217 0
 -127 -217 0
 -201 -217 0
 -85 -107 0
 -85 -128 0
 -107 -128 0
 -85 408 0
 -107 408 0
 -128 408 0
 -408 -185 0
 -408 -202 0
 -185 -202 0
 -408 -218 0
 -185 -218 0
 -202 -218 0
 -63 -86 0
 -63 -108 0
 -86 -108 0
 -63 409 0
 -86 409 0
 -108 409 0
 -409 -129 0
 -409 -168 0
 -129 -168 0
 -409 410 0
 -129 410 0
 -168 410 0
 -410 -186 0
 -410 -203 0
 -186 -203 0
 -410 -219 0
 -186 -219 0
 -203 -219 0
 -40 -64 0
 -40 -87 0
 -64 -87 0
 -40 411 0
 -64 411 0
 -87 411 0
 -411 -109 0
 -411 -130 0
 -109 -130 0
 -411 412 0
 -109 412 0
 -130 412 0
 -412 -150 0
 -412 -169 0
 -150 -169 0
 -412 413 0
 -150 413 0
 -169 413 0
 -413 -187 0
 -413 -204 0
 -187 -204 0
 -413 -220 0
 -187 -220 0
 -204 -220 0
 -41 -65 0
 -41 -88 0
 -65 -88 0
 -41 414 0
 -65 414 0
 -88 414 0
 -414 -110 0
 -414 -151 0
 -110 -151 0
 -414 415 0
 -110 415 0
 -151 415 0
 -415 -170 0
 -415 -188 0
 -170 -188 0
 -415 -205 0
 -170 -205 0
 -188 -205 0
 -42 -66 0
 -42 -89 0
 -66 -89 0
 -42 416 0
 -66 416 0
 -89 416 0
 -416 -152 0
 -416 -171 0
 -152 -171 0
 -416 -189 0
 -152 -189 0
 -171 -189 0
 -43 -67 0
 -43 -153 0
 -67 -153 0
 -43 -172 0
 -67 -172 0
 -153 -172 0
 -44 -154 0
 -111 -132 0
 -90 -112 0
 -90 -133 0
 -112 -133 0
 -68 -91 0
 -68 -113 0
 -91 -113 0
 -68 -134 0
 -91 -134 0
 -113 -134 0
 -45 -69 0
 -45 -92 0
 -69 -92 0
 -45 417 0
 -69 417 0
 -92 417 0
 -417 -114 0
 -417 -135 0
 -114 -135 0
 -46 -70 0
 -46 -93 0
 -70 -93 0
 -46 -115 0
 -70 -115 0
 -93 -115 0
 -47 -71 0
 -47 -94 0
 -71 -94 0
 -48 -72 0
